; benchmark generated from python API
(set-info :status unknown)
(declare-fun cell_1_2 () Int)
(declare-fun cell_1_6 () Int)
(declare-fun cell_2_1 () Int)
(declare-fun cell_2_6 () Int)
(declare-fun cell_3_8 () Int)
(declare-fun cell_3_9 () Int)
(declare-fun cell_4_4 () Int)
(declare-fun cell_4_9 () Int)
(declare-fun cell_5_3 () Int)
(declare-fun cell_6_8 () Int)
(declare-fun cell_7_5 () Int)
(declare-fun cell_8_7 () Int)
(declare-fun cell_9_1 () Int)
(declare-fun cell_1_1 () Int)
(declare-fun cell_3_1 () Int)
(declare-fun cell_4_1 () Int)
(declare-fun cell_5_1 () Int)
(declare-fun cell_6_1 () Int)
(declare-fun cell_7_1 () Int)
(declare-fun cell_8_1 () Int)
(declare-fun cell_2_2 () Int)
(declare-fun cell_3_2 () Int)
(declare-fun cell_4_2 () Int)
(declare-fun cell_5_2 () Int)
(declare-fun cell_6_2 () Int)
(declare-fun cell_7_2 () Int)
(declare-fun cell_8_2 () Int)
(declare-fun cell_9_2 () Int)
(declare-fun cell_1_3 () Int)
(declare-fun cell_2_3 () Int)
(declare-fun cell_3_3 () Int)
(declare-fun cell_4_3 () Int)
(declare-fun cell_6_3 () Int)
(declare-fun cell_7_3 () Int)
(declare-fun cell_8_3 () Int)
(declare-fun cell_9_3 () Int)
(declare-fun cell_1_4 () Int)
(declare-fun cell_2_4 () Int)
(declare-fun cell_3_4 () Int)
(declare-fun cell_5_4 () Int)
(declare-fun cell_6_4 () Int)
(declare-fun cell_7_4 () Int)
(declare-fun cell_8_4 () Int)
(declare-fun cell_9_4 () Int)
(declare-fun cell_1_5 () Int)
(declare-fun cell_2_5 () Int)
(declare-fun cell_3_5 () Int)
(declare-fun cell_4_5 () Int)
(declare-fun cell_5_5 () Int)
(declare-fun cell_6_5 () Int)
(declare-fun cell_8_5 () Int)
(declare-fun cell_9_5 () Int)
(declare-fun cell_3_6 () Int)
(declare-fun cell_4_6 () Int)
(declare-fun cell_5_6 () Int)
(declare-fun cell_6_6 () Int)
(declare-fun cell_7_6 () Int)
(declare-fun cell_8_6 () Int)
(declare-fun cell_9_6 () Int)
(declare-fun cell_1_7 () Int)
(declare-fun cell_2_7 () Int)
(declare-fun cell_3_7 () Int)
(declare-fun cell_4_7 () Int)
(declare-fun cell_5_7 () Int)
(declare-fun cell_6_7 () Int)
(declare-fun cell_7_7 () Int)
(declare-fun cell_9_7 () Int)
(declare-fun cell_1_8 () Int)
(declare-fun cell_2_8 () Int)
(declare-fun cell_4_8 () Int)
(declare-fun cell_5_8 () Int)
(declare-fun cell_7_8 () Int)
(declare-fun cell_8_8 () Int)
(declare-fun cell_9_8 () Int)
(declare-fun cell_1_9 () Int)
(declare-fun cell_2_9 () Int)
(declare-fun cell_5_9 () Int)
(declare-fun cell_6_9 () Int)
(declare-fun cell_7_9 () Int)
(declare-fun cell_8_9 () Int)
(declare-fun cell_9_9 () Int)
(assert
 (= cell_1_2 1))
(assert
 (= cell_1_6 2))
(assert
 (= cell_2_1 2))
(assert
 (= cell_2_6 1))
(assert
 (= cell_3_8 2))
(assert
 (= cell_3_9 1))
(assert
 (= cell_4_4 1))
(assert
 (= cell_4_9 2))
(assert
 (= cell_5_3 1))
(assert
 (= cell_6_8 1))
(assert
 (= cell_7_5 1))
(assert
 (= cell_8_7 1))
(assert
 (= cell_9_1 1))
(assert
 (let (($x2406 (= cell_1_1 9)))
 (let (($x993 (= cell_1_1 8)))
 (let (($x2529 (= cell_1_1 7)))
 (let (($x3840 (= cell_1_1 6)))
 (let (($x3517 (= cell_1_1 5)))
 (let (($x875 (= cell_1_1 4)))
 (let (($x3064 (= cell_1_1 3)))
 (let (($x182 (= cell_1_1 2)))
 (let (($x1749 (= cell_1_1 1)))
 (or $x1749 $x182 $x3064 $x875 $x3517 $x3840 $x2529 $x993 $x2406)))))))))))
(assert
 (let (($x2470 (= cell_2_1 2)))
 (or (= cell_2_1 1) $x2470 (= cell_2_1 3) (= cell_2_1 4) (= cell_2_1 5) (= cell_2_1 6) (= cell_2_1 7) (= cell_2_1 8) (= cell_2_1 9))))
(assert
 (let (($x4029 (= cell_3_1 9)))
 (let (($x1752 (= cell_3_1 8)))
 (let (($x1159 (= cell_3_1 7)))
 (let (($x3981 (= cell_3_1 6)))
 (let (($x2283 (= cell_3_1 5)))
 (let (($x3255 (= cell_3_1 4)))
 (let (($x1831 (= cell_3_1 3)))
 (let (($x1406 (= cell_3_1 2)))
 (let (($x2474 (= cell_3_1 1)))
 (or $x2474 $x1406 $x1831 $x3255 $x2283 $x3981 $x1159 $x1752 $x4029)))))))))))
(assert
 (let (($x910 (= cell_4_1 9)))
 (let (($x169 (= cell_4_1 8)))
 (let (($x636 (= cell_4_1 7)))
 (let (($x3097 (= cell_4_1 6)))
 (let (($x1319 (= cell_4_1 5)))
 (let (($x1529 (= cell_4_1 4)))
 (let (($x2650 (= cell_4_1 3)))
 (let (($x1070 (= cell_4_1 2)))
 (let (($x2540 (= cell_4_1 1)))
 (or $x2540 $x1070 $x2650 $x1529 $x1319 $x3097 $x636 $x169 $x910)))))))))))
(assert
 (let (($x2907 (= cell_5_1 9)))
 (let (($x4228 (= cell_5_1 8)))
 (let (($x1118 (= cell_5_1 7)))
 (let (($x3175 (= cell_5_1 6)))
 (let (($x1037 (= cell_5_1 5)))
 (let (($x798 (= cell_5_1 4)))
 (let (($x2188 (= cell_5_1 3)))
 (let (($x1951 (= cell_5_1 2)))
 (let (($x2193 (= cell_5_1 1)))
 (or $x2193 $x1951 $x2188 $x798 $x1037 $x3175 $x1118 $x4228 $x2907)))))))))))
(assert
 (let (($x3812 (= cell_6_1 9)))
 (let (($x1141 (= cell_6_1 8)))
 (let (($x1303 (= cell_6_1 7)))
 (let (($x1027 (= cell_6_1 6)))
 (let (($x1285 (= cell_6_1 5)))
 (let (($x53 (= cell_6_1 4)))
 (let (($x2800 (= cell_6_1 3)))
 (let (($x2500 (= cell_6_1 2)))
 (let (($x667 (= cell_6_1 1)))
 (or $x667 $x2500 $x2800 $x53 $x1285 $x1027 $x1303 $x1141 $x3812)))))))))))
(assert
 (let (($x7788 (= cell_7_1 9)))
 (let (($x1609 (= cell_7_1 8)))
 (let (($x2411 (= cell_7_1 7)))
 (let (($x1049 (= cell_7_1 6)))
 (let (($x3980 (= cell_7_1 5)))
 (let (($x2628 (= cell_7_1 4)))
 (let (($x2169 (= cell_7_1 3)))
 (let (($x3693 (= cell_7_1 2)))
 (let (($x2640 (= cell_7_1 1)))
 (or $x2640 $x3693 $x2169 $x2628 $x3980 $x1049 $x2411 $x1609 $x7788)))))))))))
(assert
 (let (($x2748 (= cell_8_1 9)))
 (let (($x7750 (= cell_8_1 8)))
 (let (($x1758 (= cell_8_1 7)))
 (let (($x2055 (= cell_8_1 6)))
 (let (($x1426 (= cell_8_1 5)))
 (let (($x2458 (= cell_8_1 4)))
 (let (($x2043 (= cell_8_1 3)))
 (let (($x2877 (= cell_8_1 2)))
 (let (($x2856 (= cell_8_1 1)))
 (or $x2856 $x2877 $x2043 $x2458 $x1426 $x2055 $x1758 $x7750 $x2748)))))))))))
(assert
 (let (($x333 (= cell_9_1 1)))
 (or $x333 (= cell_9_1 2) (= cell_9_1 3) (= cell_9_1 4) (= cell_9_1 5) (= cell_9_1 6) (= cell_9_1 7) (= cell_9_1 8) (= cell_9_1 9))))
(assert
 (let (($x1593 (= cell_1_2 1)))
 (or $x1593 (= cell_1_2 2) (= cell_1_2 3) (= cell_1_2 4) (= cell_1_2 5) (= cell_1_2 6) (= cell_1_2 7) (= cell_1_2 8) (= cell_1_2 9))))
(assert
 (let (($x680 (= cell_2_2 9)))
 (let (($x655 (= cell_2_2 8)))
 (let (($x1111 (= cell_2_2 7)))
 (let (($x2801 (= cell_2_2 6)))
 (let (($x1621 (= cell_2_2 5)))
 (let (($x886 (= cell_2_2 4)))
 (let (($x3773 (= cell_2_2 3)))
 (let (($x2232 (= cell_2_2 2)))
 (let (($x2635 (= cell_2_2 1)))
 (or $x2635 $x2232 $x3773 $x886 $x1621 $x2801 $x1111 $x655 $x680)))))))))))
(assert
 (let (($x1756 (= cell_3_2 9)))
 (let (($x2210 (= cell_3_2 8)))
 (let (($x1860 (= cell_3_2 7)))
 (let (($x1351 (= cell_3_2 6)))
 (let (($x322 (= cell_3_2 5)))
 (let (($x2468 (= cell_3_2 4)))
 (let (($x2771 (= cell_3_2 3)))
 (let (($x1570 (= cell_3_2 2)))
 (let (($x1332 (= cell_3_2 1)))
 (or $x1332 $x1570 $x2771 $x2468 $x322 $x1351 $x1860 $x2210 $x1756)))))))))))
(assert
 (let (($x377 (= cell_4_2 9)))
 (let (($x2361 (= cell_4_2 8)))
 (let (($x1855 (= cell_4_2 7)))
 (let (($x1952 (= cell_4_2 6)))
 (let (($x457 (= cell_4_2 5)))
 (let (($x2476 (= cell_4_2 4)))
 (let (($x2685 (= cell_4_2 3)))
 (let (($x848 (= cell_4_2 2)))
 (let (($x928 (= cell_4_2 1)))
 (or $x928 $x848 $x2685 $x2476 $x457 $x1952 $x1855 $x2361 $x377)))))))))))
(assert
 (let (($x2141 (= cell_5_2 9)))
 (let (($x1052 (= cell_5_2 8)))
 (let (($x1760 (= cell_5_2 7)))
 (let (($x2666 (= cell_5_2 6)))
 (let (($x2859 (= cell_5_2 5)))
 (let (($x2205 (= cell_5_2 4)))
 (let (($x8017 (= cell_5_2 3)))
 (let (($x299 (= cell_5_2 2)))
 (let (($x1309 (= cell_5_2 1)))
 (or $x1309 $x299 $x8017 $x2205 $x2859 $x2666 $x1760 $x1052 $x2141)))))))))))
(assert
 (let (($x7795 (= cell_6_2 9)))
 (let (($x276 (= cell_6_2 8)))
 (let (($x885 (= cell_6_2 7)))
 (let (($x1443 (= cell_6_2 6)))
 (let (($x361 (= cell_6_2 5)))
 (let (($x1006 (= cell_6_2 4)))
 (let (($x2377 (= cell_6_2 3)))
 (let (($x311 (= cell_6_2 2)))
 (let (($x1775 (= cell_6_2 1)))
 (or $x1775 $x311 $x2377 $x1006 $x361 $x1443 $x885 $x276 $x7795)))))))))))
(assert
 (let (($x1719 (= cell_7_2 9)))
 (let (($x2670 (= cell_7_2 8)))
 (let (($x2785 (= cell_7_2 7)))
 (let (($x594 (= cell_7_2 6)))
 (let (($x3339 (= cell_7_2 5)))
 (let (($x1985 (= cell_7_2 4)))
 (let (($x3229 (= cell_7_2 3)))
 (let (($x2720 (= cell_7_2 2)))
 (let (($x1289 (= cell_7_2 1)))
 (or $x1289 $x2720 $x3229 $x1985 $x3339 $x594 $x2785 $x2670 $x1719)))))))))))
(assert
 (let (($x2306 (= cell_8_2 9)))
 (let (($x2466 (= cell_8_2 8)))
 (let (($x3614 (= cell_8_2 7)))
 (let (($x4093 (= cell_8_2 6)))
 (let (($x1566 (= cell_8_2 5)))
 (let (($x3280 (= cell_8_2 4)))
 (let (($x3859 (= cell_8_2 3)))
 (let (($x2656 (= cell_8_2 2)))
 (let (($x436 (= cell_8_2 1)))
 (or $x436 $x2656 $x3859 $x3280 $x1566 $x4093 $x3614 $x2466 $x2306)))))))))))
(assert
 (let (($x888 (= cell_9_2 2)))
 (let (($x787 (= cell_9_2 1)))
 (or $x787 $x888 (= cell_9_2 3) (= cell_9_2 4) (= cell_9_2 5) (= cell_9_2 6) (= cell_9_2 7) (= cell_9_2 8) (= cell_9_2 9)))))
(assert
 (let (($x2081 (= cell_1_3 9)))
 (let (($x1248 (= cell_1_3 8)))
 (let (($x535 (= cell_1_3 7)))
 (let (($x2595 (= cell_1_3 6)))
 (let (($x812 (= cell_1_3 5)))
 (let (($x3472 (= cell_1_3 4)))
 (let (($x763 (= cell_1_3 3)))
 (let (($x3647 (= cell_1_3 2)))
 (let (($x1902 (= cell_1_3 1)))
 (or $x1902 $x3647 $x763 $x3472 $x812 $x2595 $x535 $x1248 $x2081)))))))))))
(assert
 (let (($x3793 (= cell_2_3 9)))
 (let (($x3141 (= cell_2_3 8)))
 (let (($x62 (= cell_2_3 7)))
 (let (($x1790 (= cell_2_3 6)))
 (let (($x1016 (= cell_2_3 5)))
 (let (($x1699 (= cell_2_3 4)))
 (let (($x4072 (= cell_2_3 3)))
 (let (($x1412 (= cell_2_3 2)))
 (let (($x2342 (= cell_2_3 1)))
 (or $x2342 $x1412 $x4072 $x1699 $x1016 $x1790 $x62 $x3141 $x3793)))))))))))
(assert
 (let (($x429 (= cell_3_3 9)))
 (let (($x653 (= cell_3_3 8)))
 (let (($x883 (= cell_3_3 7)))
 (let (($x2727 (= cell_3_3 6)))
 (let (($x2633 (= cell_3_3 5)))
 (let (($x2703 (= cell_3_3 4)))
 (let (($x530 (= cell_3_3 3)))
 (let (($x4246 (= cell_3_3 2)))
 (let (($x584 (= cell_3_3 1)))
 (or $x584 $x4246 $x530 $x2703 $x2633 $x2727 $x883 $x653 $x429)))))))))))
(assert
 (let (($x3932 (= cell_4_3 9)))
 (let (($x420 (= cell_4_3 8)))
 (let (($x2026 (= cell_4_3 7)))
 (let (($x2303 (= cell_4_3 6)))
 (let (($x388 (= cell_4_3 5)))
 (let (($x1577 (= cell_4_3 4)))
 (let (($x7839 (= cell_4_3 3)))
 (let (($x266 (= cell_4_3 2)))
 (let (($x1365 (= cell_4_3 1)))
 (or $x1365 $x266 $x7839 $x1577 $x388 $x2303 $x2026 $x420 $x3932)))))))))))
(assert
 (let (($x1705 (= cell_5_3 1)))
 (or $x1705 (= cell_5_3 2) (= cell_5_3 3) (= cell_5_3 4) (= cell_5_3 5) (= cell_5_3 6) (= cell_5_3 7) (= cell_5_3 8) (= cell_5_3 9))))
(assert
 (let (($x2264 (= cell_6_3 9)))
 (let (($x1889 (= cell_6_3 8)))
 (let (($x826 (= cell_6_3 7)))
 (let (($x3518 (= cell_6_3 6)))
 (let (($x77 (= cell_6_3 5)))
 (let (($x1904 (= cell_6_3 4)))
 (let (($x1938 (= cell_6_3 3)))
 (let (($x2110 (= cell_6_3 2)))
 (let (($x305 (= cell_6_3 1)))
 (or $x305 $x2110 $x1938 $x1904 $x77 $x3518 $x826 $x1889 $x2264)))))))))))
(assert
 (let (($x1741 (= cell_7_3 9)))
 (let (($x7885 (= cell_7_3 8)))
 (let (($x7668 (= cell_7_3 7)))
 (let (($x671 (= cell_7_3 6)))
 (let (($x3604 (= cell_7_3 5)))
 (let (($x3436 (= cell_7_3 4)))
 (let (($x2345 (= cell_7_3 3)))
 (let (($x1089 (= cell_7_3 2)))
 (let (($x1605 (= cell_7_3 1)))
 (or $x1605 $x1089 $x2345 $x3436 $x3604 $x671 $x7668 $x7885 $x1741)))))))))))
(assert
 (let (($x7853 (= cell_8_3 9)))
 (let (($x1993 (= cell_8_3 8)))
 (let (($x1173 (= cell_8_3 7)))
 (let (($x1274 (= cell_8_3 6)))
 (let (($x3974 (= cell_8_3 5)))
 (let (($x424 (= cell_8_3 4)))
 (let (($x2626 (= cell_8_3 3)))
 (let (($x1294 (= cell_8_3 2)))
 (let (($x2208 (= cell_8_3 1)))
 (or $x2208 $x1294 $x2626 $x424 $x3974 $x1274 $x1173 $x1993 $x7853)))))))))))
(assert
 (let (($x14 (= cell_9_3 1)))
 (or $x14 (= cell_9_3 2) (= cell_9_3 3) (= cell_9_3 4) (= cell_9_3 5) (= cell_9_3 6) (= cell_9_3 7) (= cell_9_3 8) (= cell_9_3 9))))
(assert
 (let (($x2132 (= cell_1_4 9)))
 (let (($x7762 (= cell_1_4 8)))
 (let (($x1366 (= cell_1_4 7)))
 (let (($x2071 (= cell_1_4 6)))
 (let (($x1392 (= cell_1_4 5)))
 (let (($x2784 (= cell_1_4 4)))
 (let (($x600 (= cell_1_4 3)))
 (let (($x3047 (= cell_1_4 2)))
 (let (($x7662 (= cell_1_4 1)))
 (or $x7662 $x3047 $x600 $x2784 $x1392 $x2071 $x1366 $x7762 $x2132)))))))))))
(assert
 (let (($x478 (= cell_2_4 9)))
 (let (($x972 (= cell_2_4 8)))
 (let (($x531 (= cell_2_4 7)))
 (let (($x1530 (= cell_2_4 6)))
 (let (($x3105 (= cell_2_4 5)))
 (let (($x890 (= cell_2_4 4)))
 (let (($x2099 (= cell_2_4 3)))
 (let (($x1011 (= cell_2_4 2)))
 (let (($x2162 (= cell_2_4 1)))
 (or $x2162 $x1011 $x2099 $x890 $x3105 $x1530 $x531 $x972 $x478)))))))))))
(assert
 (let (($x2094 (= cell_3_4 9)))
 (let (($x2131 (= cell_3_4 8)))
 (let (($x386 (= cell_3_4 7)))
 (let (($x1384 (= cell_3_4 6)))
 (let (($x3832 (= cell_3_4 5)))
 (let (($x818 (= cell_3_4 4)))
 (let (($x3342 (= cell_3_4 3)))
 (let (($x2271 (= cell_3_4 2)))
 (let (($x2485 (= cell_3_4 1)))
 (or $x2485 $x2271 $x3342 $x818 $x3832 $x1384 $x386 $x2131 $x2094)))))))))))
(assert
 (let (($x1523 (= cell_4_4 1)))
 (or $x1523 (= cell_4_4 2) (= cell_4_4 3) (= cell_4_4 4) (= cell_4_4 5) (= cell_4_4 6) (= cell_4_4 7) (= cell_4_4 8) (= cell_4_4 9))))
(assert
 (let (($x2041 (= cell_5_4 9)))
 (let (($x1757 (= cell_5_4 8)))
 (let (($x1398 (= cell_5_4 7)))
 (let (($x3341 (= cell_5_4 6)))
 (let (($x91 (= cell_5_4 5)))
 (let (($x2814 (= cell_5_4 4)))
 (let (($x3762 (= cell_5_4 3)))
 (let (($x3643 (= cell_5_4 2)))
 (let (($x3835 (= cell_5_4 1)))
 (or $x3835 $x3643 $x3762 $x2814 $x91 $x3341 $x1398 $x1757 $x2041)))))))))))
(assert
 (let (($x2867 (= cell_6_4 9)))
 (let (($x1667 (= cell_6_4 8)))
 (let (($x1669 (= cell_6_4 7)))
 (let (($x806 (= cell_6_4 6)))
 (let (($x3179 (= cell_6_4 5)))
 (let (($x118 (= cell_6_4 4)))
 (let (($x2473 (= cell_6_4 3)))
 (let (($x3140 (= cell_6_4 2)))
 (let (($x4180 (= cell_6_4 1)))
 (or $x4180 $x3140 $x2473 $x118 $x3179 $x806 $x1669 $x1667 $x2867)))))))))))
(assert
 (let (($x1629 (= cell_7_4 9)))
 (let (($x7986 (= cell_7_4 8)))
 (let (($x2680 (= cell_7_4 7)))
 (let (($x2821 (= cell_7_4 6)))
 (let (($x2559 (= cell_7_4 5)))
 (let (($x2684 (= cell_7_4 4)))
 (let (($x2279 (= cell_7_4 3)))
 (let (($x99 (= cell_7_4 2)))
 (let (($x3557 (= cell_7_4 1)))
 (or $x3557 $x99 $x2279 $x2684 $x2559 $x2821 $x2680 $x7986 $x1629)))))))))))
(assert
 (let (($x1478 (= cell_8_4 9)))
 (let (($x4125 (= cell_8_4 8)))
 (let (($x686 (= cell_8_4 7)))
 (let (($x3679 (= cell_8_4 6)))
 (let (($x1045 (= cell_8_4 5)))
 (let (($x2220 (= cell_8_4 4)))
 (let (($x223 (= cell_8_4 3)))
 (let (($x494 (= cell_8_4 2)))
 (let (($x2323 (= cell_8_4 1)))
 (or $x2323 $x494 $x223 $x2220 $x1045 $x3679 $x686 $x4125 $x1478)))))))))))
(assert
 (let (($x2946 (= cell_9_4 1)))
 (or $x2946 (= cell_9_4 2) (= cell_9_4 3) (= cell_9_4 4) (= cell_9_4 5) (= cell_9_4 6) (= cell_9_4 7) (= cell_9_4 8) (= cell_9_4 9))))
(assert
 (let (($x2182 (= cell_1_5 9)))
 (let (($x1311 (= cell_1_5 8)))
 (let (($x2322 (= cell_1_5 7)))
 (let (($x556 (= cell_1_5 6)))
 (let (($x195 (= cell_1_5 5)))
 (let (($x794 (= cell_1_5 4)))
 (let (($x1283 (= cell_1_5 3)))
 (let (($x742 (= cell_1_5 2)))
 (let (($x1707 (= cell_1_5 1)))
 (or $x1707 $x742 $x1283 $x794 $x195 $x556 $x2322 $x1311 $x2182)))))))))))
(assert
 (let (($x2057 (= cell_2_5 9)))
 (let (($x2459 (= cell_2_5 8)))
 (let (($x1457 (= cell_2_5 7)))
 (let (($x1552 (= cell_2_5 6)))
 (let (($x202 (= cell_2_5 5)))
 (let (($x2536 (= cell_2_5 4)))
 (let (($x3886 (= cell_2_5 3)))
 (let (($x2155 (= cell_2_5 2)))
 (let (($x3749 (= cell_2_5 1)))
 (or $x3749 $x2155 $x3886 $x2536 $x202 $x1552 $x1457 $x2459 $x2057)))))))))))
(assert
 (let (($x920 (= cell_3_5 9)))
 (let (($x2738 (= cell_3_5 8)))
 (let (($x1918 (= cell_3_5 7)))
 (let (($x4224 (= cell_3_5 6)))
 (let (($x2416 (= cell_3_5 5)))
 (let (($x2089 (= cell_3_5 4)))
 (let (($x2808 (= cell_3_5 3)))
 (let (($x2522 (= cell_3_5 2)))
 (let (($x1511 (= cell_3_5 1)))
 (or $x1511 $x2522 $x2808 $x2089 $x2416 $x4224 $x1918 $x2738 $x920)))))))))))
(assert
 (let (($x3419 (= cell_4_5 9)))
 (let (($x1765 (= cell_4_5 8)))
 (let (($x218 (= cell_4_5 7)))
 (let (($x1738 (= cell_4_5 6)))
 (let (($x3362 (= cell_4_5 5)))
 (let (($x1526 (= cell_4_5 4)))
 (let (($x1665 (= cell_4_5 3)))
 (let (($x490 (= cell_4_5 2)))
 (let (($x3336 (= cell_4_5 1)))
 (or $x3336 $x490 $x1665 $x1526 $x3362 $x1738 $x218 $x1765 $x3419)))))))))))
(assert
 (let (($x2838 (= cell_5_5 9)))
 (let (($x3242 (= cell_5_5 8)))
 (let (($x4025 (= cell_5_5 7)))
 (let (($x2003 (= cell_5_5 6)))
 (let (($x871 (= cell_5_5 5)))
 (let (($x2381 (= cell_5_5 4)))
 (let (($x142 (= cell_5_5 3)))
 (let (($x2490 (= cell_5_5 2)))
 (let (($x1112 (= cell_5_5 1)))
 (or $x1112 $x2490 $x142 $x2381 $x871 $x2003 $x4025 $x3242 $x2838)))))))))))
(assert
 (let (($x2533 (= cell_6_5 9)))
 (let (($x936 (= cell_6_5 8)))
 (let (($x1181 (= cell_6_5 7)))
 (let (($x3727 (= cell_6_5 6)))
 (let (($x1893 (= cell_6_5 5)))
 (let (($x3667 (= cell_6_5 4)))
 (let (($x1880 (= cell_6_5 3)))
 (let (($x3854 (= cell_6_5 2)))
 (let (($x837 (= cell_6_5 1)))
 (or $x837 $x3854 $x1880 $x3667 $x1893 $x3727 $x1181 $x936 $x2533)))))))))))
(assert
 (let (($x7962 (= cell_7_5 1)))
 (or $x7962 (= cell_7_5 2) (= cell_7_5 3) (= cell_7_5 4) (= cell_7_5 5) (= cell_7_5 6) (= cell_7_5 7) (= cell_7_5 8) (= cell_7_5 9))))
(assert
 (let (($x3618 (= cell_8_5 9)))
 (let (($x2573 (= cell_8_5 8)))
 (let (($x1815 (= cell_8_5 7)))
 (let (($x1003 (= cell_8_5 6)))
 (let (($x2257 (= cell_8_5 5)))
 (let (($x2032 (= cell_8_5 4)))
 (let (($x606 (= cell_8_5 3)))
 (let (($x1604 (= cell_8_5 2)))
 (let (($x706 (= cell_8_5 1)))
 (or $x706 $x1604 $x606 $x2032 $x2257 $x1003 $x1815 $x2573 $x3618)))))))))))
(assert
 (let (($x1233 (= cell_9_5 1)))
 (or $x1233 (= cell_9_5 2) (= cell_9_5 3) (= cell_9_5 4) (= cell_9_5 5) (= cell_9_5 6) (= cell_9_5 7) (= cell_9_5 8) (= cell_9_5 9))))
(assert
 (let (($x2646 (= cell_1_6 2)))
 (or (= cell_1_6 1) $x2646 (= cell_1_6 3) (= cell_1_6 4) (= cell_1_6 5) (= cell_1_6 6) (= cell_1_6 7) (= cell_1_6 8) (= cell_1_6 9))))
(assert
 (let (($x739 (= cell_2_6 1)))
 (or $x739 (= cell_2_6 2) (= cell_2_6 3) (= cell_2_6 4) (= cell_2_6 5) (= cell_2_6 6) (= cell_2_6 7) (= cell_2_6 8) (= cell_2_6 9))))
(assert
 (let (($x3720 (= cell_3_6 9)))
 (let (($x3887 (= cell_3_6 8)))
 (let (($x2369 (= cell_3_6 7)))
 (let (($x1858 (= cell_3_6 6)))
 (let (($x1774 (= cell_3_6 5)))
 (let (($x3508 (= cell_3_6 4)))
 (let (($x2146 (= cell_3_6 3)))
 (let (($x76 (= cell_3_6 2)))
 (let (($x1413 (= cell_3_6 1)))
 (or $x1413 $x76 $x2146 $x3508 $x1774 $x1858 $x2369 $x3887 $x3720)))))))))))
(assert
 (let (($x3475 (= cell_4_6 9)))
 (let (($x2711 (= cell_4_6 8)))
 (let (($x2707 (= cell_4_6 7)))
 (let (($x2857 (= cell_4_6 6)))
 (let (($x2489 (= cell_4_6 5)))
 (let (($x2454 (= cell_4_6 4)))
 (let (($x729 (= cell_4_6 3)))
 (let (($x1071 (= cell_4_6 2)))
 (let (($x2431 (= cell_4_6 1)))
 (or $x2431 $x1071 $x729 $x2454 $x2489 $x2857 $x2707 $x2711 $x3475)))))))))))
(assert
 (let (($x2376 (= cell_5_6 2)))
 (let (($x822 (= cell_5_6 1)))
 (or $x822 $x2376 (= cell_5_6 3) (= cell_5_6 4) (= cell_5_6 5) (= cell_5_6 6) (= cell_5_6 7) (= cell_5_6 8) (= cell_5_6 9)))))
(assert
 (let (($x660 (= cell_6_6 9)))
 (let (($x1454 (= cell_6_6 8)))
 (let (($x3521 (= cell_6_6 7)))
 (let (($x828 (= cell_6_6 6)))
 (let (($x3724 (= cell_6_6 5)))
 (let (($x605 (= cell_6_6 4)))
 (let (($x534 (= cell_6_6 3)))
 (let (($x750 (= cell_6_6 2)))
 (let (($x2221 (= cell_6_6 1)))
 (or $x2221 $x750 $x534 $x605 $x3724 $x828 $x3521 $x1454 $x660)))))))))))
(assert
 (let (($x1920 (= cell_7_6 9)))
 (let (($x2455 (= cell_7_6 8)))
 (let (($x268 (= cell_7_6 7)))
 (let (($x1675 (= cell_7_6 6)))
 (let (($x639 (= cell_7_6 5)))
 (let (($x2432 (= cell_7_6 4)))
 (let (($x958 (= cell_7_6 3)))
 (let (($x502 (= cell_7_6 2)))
 (let (($x2046 (= cell_7_6 1)))
 (or $x2046 $x502 $x958 $x2432 $x639 $x1675 $x268 $x2455 $x1920)))))))))))
(assert
 (let (($x1210 (= cell_8_6 9)))
 (let (($x3308 (= cell_8_6 8)))
 (let (($x1565 (= cell_8_6 7)))
 (let (($x1337 (= cell_8_6 6)))
 (let (($x434 (= cell_8_6 5)))
 (let (($x3109 (= cell_8_6 4)))
 (let (($x1293 (= cell_8_6 3)))
 (let (($x2096 (= cell_8_6 2)))
 (let (($x2054 (= cell_8_6 1)))
 (or $x2054 $x2096 $x1293 $x3109 $x434 $x1337 $x1565 $x3308 $x1210)))))))))))
(assert
 (let (($x3012 (= cell_9_6 2)))
 (let (($x1327 (= cell_9_6 1)))
 (or $x1327 $x3012 (= cell_9_6 3) (= cell_9_6 4) (= cell_9_6 5) (= cell_9_6 6) (= cell_9_6 7) (= cell_9_6 8) (= cell_9_6 9)))))
(assert
 (let (($x2931 (= cell_1_7 9)))
 (let (($x2545 (= cell_1_7 8)))
 (let (($x1123 (= cell_1_7 7)))
 (let (($x3386 (= cell_1_7 6)))
 (let (($x1721 (= cell_1_7 5)))
 (let (($x1427 (= cell_1_7 4)))
 (let (($x37 (= cell_1_7 3)))
 (let (($x612 (= cell_1_7 2)))
 (let (($x3589 (= cell_1_7 1)))
 (or $x3589 $x612 $x37 $x1427 $x1721 $x3386 $x1123 $x2545 $x2931)))))))))))
(assert
 (let (($x2310 (= cell_2_7 9)))
 (let (($x1873 (= cell_2_7 8)))
 (let (($x785 (= cell_2_7 7)))
 (let (($x580 (= cell_2_7 6)))
 (let (($x1557 (= cell_2_7 5)))
 (let (($x200 (= cell_2_7 4)))
 (let (($x840 (= cell_2_7 3)))
 (let (($x2107 (= cell_2_7 2)))
 (let (($x2797 (= cell_2_7 1)))
 (or $x2797 $x2107 $x840 $x200 $x1557 $x580 $x785 $x1873 $x2310)))))))))))
(assert
 (let (($x3400 (= cell_3_7 9)))
 (let (($x2170 (= cell_3_7 8)))
 (let (($x3454 (= cell_3_7 7)))
 (let (($x446 (= cell_3_7 6)))
 (let (($x1652 (= cell_3_7 5)))
 (let (($x1436 (= cell_3_7 4)))
 (let (($x6 (= cell_3_7 3)))
 (let (($x3096 (= cell_3_7 2)))
 (let (($x3376 (= cell_3_7 1)))
 (or $x3376 $x3096 $x6 $x1436 $x1652 $x446 $x3454 $x2170 $x3400)))))))))))
(assert
 (let (($x2391 (= cell_4_7 9)))
 (let (($x1733 (= cell_4_7 8)))
 (let (($x4061 (= cell_4_7 7)))
 (let (($x93 (= cell_4_7 6)))
 (let (($x2385 (= cell_4_7 5)))
 (let (($x181 (= cell_4_7 4)))
 (let (($x3843 (= cell_4_7 3)))
 (let (($x1595 (= cell_4_7 2)))
 (let (($x2065 (= cell_4_7 1)))
 (or $x2065 $x1595 $x3843 $x181 $x2385 $x93 $x4061 $x1733 $x2391)))))))))))
(assert
 (let (($x147 (= cell_5_7 9)))
 (let (($x3264 (= cell_5_7 8)))
 (let (($x364 (= cell_5_7 7)))
 (let (($x1474 (= cell_5_7 6)))
 (let (($x3515 (= cell_5_7 5)))
 (let (($x1114 (= cell_5_7 4)))
 (let (($x1704 (= cell_5_7 3)))
 (let (($x571 (= cell_5_7 2)))
 (let (($x1724 (= cell_5_7 1)))
 (or $x1724 $x571 $x1704 $x1114 $x3515 $x1474 $x364 $x3264 $x147)))))))))))
(assert
 (let (($x366 (= cell_6_7 9)))
 (let (($x3142 (= cell_6_7 8)))
 (let (($x2518 (= cell_6_7 7)))
 (let (($x795 (= cell_6_7 6)))
 (let (($x2219 (= cell_6_7 5)))
 (let (($x1168 (= cell_6_7 4)))
 (let (($x2938 (= cell_6_7 3)))
 (let (($x668 (= cell_6_7 2)))
 (let (($x3959 (= cell_6_7 1)))
 (or $x3959 $x668 $x2938 $x1168 $x2219 $x795 $x2518 $x3142 $x366)))))))))))
(assert
 (let (($x167 (= cell_7_7 9)))
 (let (($x3405 (= cell_7_7 8)))
 (let (($x96 (= cell_7_7 7)))
 (let (($x153 (= cell_7_7 6)))
 (let (($x2147 (= cell_7_7 5)))
 (let (($x2616 (= cell_7_7 4)))
 (let (($x3507 (= cell_7_7 3)))
 (let (($x7872 (= cell_7_7 2)))
 (let (($x2763 (= cell_7_7 1)))
 (or $x2763 $x7872 $x3507 $x2616 $x2147 $x153 $x96 $x3405 $x167)))))))))))
(assert
 (let (($x926 (= cell_8_7 1)))
 (or $x926 (= cell_8_7 2) (= cell_8_7 3) (= cell_8_7 4) (= cell_8_7 5) (= cell_8_7 6) (= cell_8_7 7) (= cell_8_7 8) (= cell_8_7 9))))
(assert
 (let (($x4052 (= cell_9_7 1)))
 (or $x4052 (= cell_9_7 2) (= cell_9_7 3) (= cell_9_7 4) (= cell_9_7 5) (= cell_9_7 6) (= cell_9_7 7) (= cell_9_7 8) (= cell_9_7 9))))
(assert
 (let (($x165 (= cell_1_8 9)))
 (let (($x850 (= cell_1_8 8)))
 (let (($x387 (= cell_1_8 7)))
 (let (($x129 (= cell_1_8 6)))
 (let (($x1783 (= cell_1_8 5)))
 (let (($x2324 (= cell_1_8 4)))
 (let (($x1878 (= cell_1_8 3)))
 (let (($x2168 (= cell_1_8 2)))
 (let (($x814 (= cell_1_8 1)))
 (or $x814 $x2168 $x1878 $x2324 $x1783 $x129 $x387 $x850 $x165)))))))))))
(assert
 (let (($x591 (= cell_2_8 9)))
 (let (($x1726 (= cell_2_8 8)))
 (let (($x2998 (= cell_2_8 7)))
 (let (($x413 (= cell_2_8 6)))
 (let (($x2742 (= cell_2_8 5)))
 (let (($x1574 (= cell_2_8 4)))
 (let (($x3703 (= cell_2_8 3)))
 (let (($x3702 (= cell_2_8 2)))
 (let (($x987 (= cell_2_8 1)))
 (or $x987 $x3702 $x3703 $x1574 $x2742 $x413 $x2998 $x1726 $x591)))))))))))
(assert
 (let (($x1769 (= cell_3_8 2)))
 (or (= cell_3_8 1) $x1769 (= cell_3_8 3) (= cell_3_8 4) (= cell_3_8 5) (= cell_3_8 6) (= cell_3_8 7) (= cell_3_8 8) (= cell_3_8 9))))
(assert
 (let (($x3534 (= cell_4_8 9)))
 (let (($x108 (= cell_4_8 8)))
 (let (($x1214 (= cell_4_8 7)))
 (let (($x2691 (= cell_4_8 6)))
 (let (($x2941 (= cell_4_8 5)))
 (let (($x3207 (= cell_4_8 4)))
 (let (($x644 (= cell_4_8 3)))
 (let (($x1140 (= cell_4_8 2)))
 (let (($x466 (= cell_4_8 1)))
 (or $x466 $x1140 $x644 $x3207 $x2941 $x2691 $x1214 $x108 $x3534)))))))))))
(assert
 (let (($x2583 (= cell_5_8 9)))
 (let (($x839 (= cell_5_8 8)))
 (let (($x294 (= cell_5_8 7)))
 (let (($x4053 (= cell_5_8 6)))
 (let (($x809 (= cell_5_8 5)))
 (let (($x3654 (= cell_5_8 4)))
 (let (($x320 (= cell_5_8 3)))
 (let (($x856 (= cell_5_8 2)))
 (let (($x2690 (= cell_5_8 1)))
 (or $x2690 $x856 $x320 $x3654 $x809 $x4053 $x294 $x839 $x2583)))))))))))
(assert
 (let (($x2325 (= cell_6_8 1)))
 (or $x2325 (= cell_6_8 2) (= cell_6_8 3) (= cell_6_8 4) (= cell_6_8 5) (= cell_6_8 6) (= cell_6_8 7) (= cell_6_8 8) (= cell_6_8 9))))
(assert
 (let (($x1896 (= cell_7_8 9)))
 (let (($x792 (= cell_7_8 8)))
 (let (($x3044 (= cell_7_8 7)))
 (let (($x3039 (= cell_7_8 6)))
 (let (($x2253 (= cell_7_8 5)))
 (let (($x1730 (= cell_7_8 4)))
 (let (($x48 (= cell_7_8 3)))
 (let (($x1115 (= cell_7_8 2)))
 (let (($x252 (= cell_7_8 1)))
 (or $x252 $x1115 $x48 $x1730 $x2253 $x3039 $x3044 $x792 $x1896)))))))))))
(assert
 (let (($x7989 (= cell_8_8 2)))
 (let (($x1062 (= cell_8_8 1)))
 (or $x1062 $x7989 (= cell_8_8 3) (= cell_8_8 4) (= cell_8_8 5) (= cell_8_8 6) (= cell_8_8 7) (= cell_8_8 8) (= cell_8_8 9)))))
(assert
 (let (($x2781 (= cell_9_8 2)))
 (let (($x3136 (= cell_9_8 1)))
 (or $x3136 $x2781 (= cell_9_8 3) (= cell_9_8 4) (= cell_9_8 5) (= cell_9_8 6) (= cell_9_8 7) (= cell_9_8 8) (= cell_9_8 9)))))
(assert
 (let (($x2777 (= cell_1_9 9)))
 (let (($x1109 (= cell_1_9 8)))
 (let (($x2900 (= cell_1_9 7)))
 (let (($x2546 (= cell_1_9 6)))
 (let (($x1043 (= cell_1_9 5)))
 (let (($x2721 (= cell_1_9 4)))
 (let (($x46 (= cell_1_9 3)))
 (let (($x135 (= cell_1_9 2)))
 (let (($x352 (= cell_1_9 1)))
 (or $x352 $x135 $x46 $x2721 $x1043 $x2546 $x2900 $x1109 $x2777)))))))))))
(assert
 (let (($x1841 (= cell_2_9 9)))
 (let (($x1706 (= cell_2_9 8)))
 (let (($x2520 (= cell_2_9 7)))
 (let (($x3317 (= cell_2_9 6)))
 (let (($x2985 (= cell_2_9 5)))
 (let (($x3062 (= cell_2_9 4)))
 (let (($x741 (= cell_2_9 3)))
 (let (($x2249 (= cell_2_9 2)))
 (let (($x1322 (= cell_2_9 1)))
 (or $x1322 $x2249 $x741 $x3062 $x2985 $x3317 $x2520 $x1706 $x1841)))))))))))
(assert
 (let (($x2622 (= cell_3_9 1)))
 (or $x2622 (= cell_3_9 2) (= cell_3_9 3) (= cell_3_9 4) (= cell_3_9 5) (= cell_3_9 6) (= cell_3_9 7) (= cell_3_9 8) (= cell_3_9 9))))
(assert
 (let (($x3235 (= cell_4_9 2)))
 (or (= cell_4_9 1) $x3235 (= cell_4_9 3) (= cell_4_9 4) (= cell_4_9 5) (= cell_4_9 6) (= cell_4_9 7) (= cell_4_9 8) (= cell_4_9 9))))
(assert
 (let (($x3694 (= cell_5_9 9)))
 (let (($x499 (= cell_5_9 8)))
 (let (($x1982 (= cell_5_9 7)))
 (let (($x1433 (= cell_5_9 6)))
 (let (($x3305 (= cell_5_9 5)))
 (let (($x585 (= cell_5_9 4)))
 (let (($x2318 (= cell_5_9 3)))
 (let (($x7840 (= cell_5_9 2)))
 (let (($x71 (= cell_5_9 1)))
 (or $x71 $x7840 $x2318 $x585 $x3305 $x1433 $x1982 $x499 $x3694)))))))))))
(assert
 (let (($x2189 (= cell_6_9 2)))
 (let (($x1722 (= cell_6_9 1)))
 (or $x1722 $x2189 (= cell_6_9 3) (= cell_6_9 4) (= cell_6_9 5) (= cell_6_9 6) (= cell_6_9 7) (= cell_6_9 8) (= cell_6_9 9)))))
(assert
 (let (($x1135 (= cell_7_9 9)))
 (let (($x2860 (= cell_7_9 8)))
 (let (($x602 (= cell_7_9 7)))
 (let (($x3437 (= cell_7_9 6)))
 (let (($x868 (= cell_7_9 5)))
 (let (($x217 (= cell_7_9 4)))
 (let (($x1376 (= cell_7_9 3)))
 (let (($x3889 (= cell_7_9 2)))
 (let (($x713 (= cell_7_9 1)))
 (or $x713 $x3889 $x1376 $x217 $x868 $x3437 $x602 $x2860 $x1135)))))))))))
(assert
 (let (($x3340 (= cell_8_9 2)))
 (let (($x2722 (= cell_8_9 1)))
 (or $x2722 $x3340 (= cell_8_9 3) (= cell_8_9 4) (= cell_8_9 5) (= cell_8_9 6) (= cell_8_9 7) (= cell_8_9 8) (= cell_8_9 9)))))
(assert
 (let (($x659 (= cell_9_9 2)))
 (let (($x540 (= cell_9_9 1)))
 (or $x540 $x659 (= cell_9_9 3) (= cell_9_9 4) (= cell_9_9 5) (= cell_9_9 6) (= cell_9_9 7) (= cell_9_9 8) (= cell_9_9 9)))))
(assert
 (and (distinct cell_1_1 cell_1_2 cell_1_3 cell_1_4 cell_1_5 cell_1_6 cell_1_7 cell_1_8 cell_1_9) true))
(assert
 (and (distinct cell_2_1 cell_2_2 cell_2_3 cell_2_4 cell_2_5 cell_2_6 cell_2_7 cell_2_8 cell_2_9) true))
(assert
 (and (distinct cell_3_1 cell_3_2 cell_3_3 cell_3_4 cell_3_5 cell_3_6 cell_3_7 cell_3_8 cell_3_9) true))
(assert
 (and (distinct cell_4_1 cell_4_2 cell_4_3 cell_4_4 cell_4_5 cell_4_6 cell_4_7 cell_4_8 cell_4_9) true))
(assert
 (and (distinct cell_5_1 cell_5_2 cell_5_3 cell_5_4 cell_5_5 cell_5_6 cell_5_7 cell_5_8 cell_5_9) true))
(assert
 (and (distinct cell_6_1 cell_6_2 cell_6_3 cell_6_4 cell_6_5 cell_6_6 cell_6_7 cell_6_8 cell_6_9) true))
(assert
 (and (distinct cell_7_1 cell_7_2 cell_7_3 cell_7_4 cell_7_5 cell_7_6 cell_7_7 cell_7_8 cell_7_9) true))
(assert
 (and (distinct cell_8_1 cell_8_2 cell_8_3 cell_8_4 cell_8_5 cell_8_6 cell_8_7 cell_8_8 cell_8_9) true))
(assert
 (and (distinct cell_9_1 cell_9_2 cell_9_3 cell_9_4 cell_9_5 cell_9_6 cell_9_7 cell_9_8 cell_9_9) true))
(assert
 (and (distinct cell_1_1 cell_2_1 cell_3_1 cell_4_1 cell_5_1 cell_6_1 cell_7_1 cell_8_1 cell_9_1) true))
(assert
 (and (distinct cell_1_2 cell_2_2 cell_3_2 cell_4_2 cell_5_2 cell_6_2 cell_7_2 cell_8_2 cell_9_2) true))
(assert
 (and (distinct cell_1_3 cell_2_3 cell_3_3 cell_4_3 cell_5_3 cell_6_3 cell_7_3 cell_8_3 cell_9_3) true))
(assert
 (and (distinct cell_1_4 cell_2_4 cell_3_4 cell_4_4 cell_5_4 cell_6_4 cell_7_4 cell_8_4 cell_9_4) true))
(assert
 (and (distinct cell_1_5 cell_2_5 cell_3_5 cell_4_5 cell_5_5 cell_6_5 cell_7_5 cell_8_5 cell_9_5) true))
(assert
 (and (distinct cell_1_6 cell_2_6 cell_3_6 cell_4_6 cell_5_6 cell_6_6 cell_7_6 cell_8_6 cell_9_6) true))
(assert
 (and (distinct cell_1_7 cell_2_7 cell_3_7 cell_4_7 cell_5_7 cell_6_7 cell_7_7 cell_8_7 cell_9_7) true))
(assert
 (and (distinct cell_1_8 cell_2_8 cell_3_8 cell_4_8 cell_5_8 cell_6_8 cell_7_8 cell_8_8 cell_9_8) true))
(assert
 (and (distinct cell_1_9 cell_2_9 cell_3_9 cell_4_9 cell_5_9 cell_6_9 cell_7_9 cell_8_9 cell_9_9) true))
(assert
 (and (distinct cell_1_1 cell_1_2 cell_1_3 cell_2_1 cell_2_2 cell_2_3 cell_3_1 cell_3_2 cell_3_3) true))
(assert
 (and (distinct cell_1_4 cell_1_5 cell_1_6 cell_2_4 cell_2_5 cell_2_6 cell_3_4 cell_3_5 cell_3_6) true))
(assert
 (and (distinct cell_1_7 cell_1_8 cell_1_9 cell_2_7 cell_2_8 cell_2_9 cell_3_7 cell_3_8 cell_3_9) true))
(assert
 (and (distinct cell_4_1 cell_4_2 cell_4_3 cell_5_1 cell_5_2 cell_5_3 cell_6_1 cell_6_2 cell_6_3) true))
(assert
 (and (distinct cell_4_4 cell_4_5 cell_4_6 cell_5_4 cell_5_5 cell_5_6 cell_6_4 cell_6_5 cell_6_6) true))
(assert
 (and (distinct cell_4_7 cell_4_8 cell_4_9 cell_5_7 cell_5_8 cell_5_9 cell_6_7 cell_6_8 cell_6_9) true))
(assert
 (and (distinct cell_7_1 cell_7_2 cell_7_3 cell_8_1 cell_8_2 cell_8_3 cell_9_1 cell_9_2 cell_9_3) true))
(assert
 (and (distinct cell_7_4 cell_7_5 cell_7_6 cell_8_4 cell_8_5 cell_8_6 cell_9_4 cell_9_5 cell_9_6) true))
(assert
 (and (distinct cell_7_7 cell_7_8 cell_7_9 cell_8_7 cell_8_8 cell_8_9 cell_9_7 cell_9_8 cell_9_9) true))
(assert
 (let (($x1795 (and (distinct cell_5_9 cell_6_8 cell_7_7 cell_8_6) true)))
 (let (($x3495 (and (distinct cell_2_9 cell_3_8 cell_4_7 cell_5_6 cell_6_5 cell_7_4 cell_8_3 cell_9_2) true)))
 (let (($x1354 (and (distinct cell_1_8 cell_2_7 cell_3_6 cell_4_5 cell_5_4 cell_6_3 cell_7_2 cell_8_1) true)))
 (let (($x849 (and (distinct cell_1_5 cell_2_4 cell_3_3 cell_4_2) true)))
 (let (($x3528 (and (distinct cell_5_1 cell_6_2 cell_7_3 cell_8_4) true)))
 (let (($x3126 (and (distinct cell_2_1 cell_3_2 cell_4_3 cell_5_4 cell_6_5 cell_7_6 cell_8_7 cell_9_8) true)))
 (let (($x3791 (and (distinct cell_1_2 cell_2_3 cell_3_4 cell_4_5 cell_5_6 cell_6_7 cell_7_8 cell_8_9) true)))
 (let (($x1781 (and (distinct cell_1_5 cell_2_6 cell_3_7 cell_4_8) true)))
 (and $x1781 $x3791 $x3126 $x3528 $x849 $x1354 $x3495 $x1795))))))))))
(assert
 (= cell_5_5 2))
(check-sat)
